Minimize
  433.3288500000001 x0 + 247.698125 x1 + 467.303575 x2 + 417.01485 x3
   + 479.2765 x4 + 253.462275 x5 + 470.22685 x6 + 465.1834249999999 x7
   + 415.5294750000001 x8 + 406.556325 x9 + 414.526175 x10
   + 409.8920499999999 x11 + 477.76615 x12 + 455.11465 x13 + 414.362175 x14
   + 384.3077 x15 + 379.1184 x16 + 152.959325 x17 + 454.14875 x18
   + 474.87005 x19 + 466.3580500000001 x20 + 471.3376 x21 + 415.982275 x22
   + 479.009625 x23 + 370.1791 x24 + 409.238725 x25 + 472.116725 x26
   + 466.4205 x27 + 462.8974 x28 + 460.2337 x29 + 441.013 x30
   + 300.9114 x31 + 304.491875 x32 + 384.67135 x33 + 277.975075 x34
   + 442.3723 x35 + 403.06635 x36 + 363.164575 x37 + 327.175275 x38
   + 162.641175 x39 + 425.480275 x40 + 413.9629750000001 x41 + 409.874 x42
   + 414.9941250000001 x43 + 327.68995 x44 + 476.006175 x45
   + 475.132175 x46 + 316.072375 x47 + 454.06195 x48 + 384.3077 x49
   + 304.022575 x50 + 367.3487500000001 x51 + 461.6113750000001 x52
   + 469.7680500000001 x53 + 468.060325 x54 + 476.2548 x55
   + 479.5405500000001 x56 + 353.11895 x57 + 461.96815 x58
   + 376.9205000000001 x59 + 226.63285 x60 + 418.168225 x61
   + 425.325025 x62 + 409.238725 x63 + 472.116725 x64 + 466.4205 x65
   + 462.8974 x66 + 460.2337 x67 + 379.02475 x68 + 429.1748249999999 x69
   + 78.4118 x70 + 343.857975 x71 + 416.06475 x72 + 409.453725 x73
   + 414.1954749999999 x74 + 418.725125 x75 + 77.70415 x76 + 405.48355 x77
   + 417.01485 x78 + 166.727575 x79 + 476.620425 x80 + 387.640275 x81
   + 377.516375 x82 + 458.697925 x83 + 462.726125 x84 + 139.442575 x85
   + 453.7447 x86 + 413.5733750000001 x87 + 469.7680500000001 x88
   + 479.5405500000001 x89 + 353.11895 x90 + 461.96815 x91
   + 457.3458000000001 x92 + 478.243425 x93 + 469.5876 x94 + 477.352075 x95
   + 407.031925 x96 + 443.98425 x97 + 419.128425 x98 + 473.471675 x99
   + 467.497975 x100 + 463.8819 x101 + 461.905425 x102 + 455.14515 x103
Subject To
 c_0: x25 + x63 + x98 >= 1
 c_1: x7 + x57 + x90 >= 1
 c_2: x8 + x41 + x73 >= 1
 c_3: x11 + x43 + x75 >= 1
 c_4: x16 + x50 + x83 >= 1
 c_5: x33 + x58 + x91 >= 1
 c_6: x7 + x57 + x90 >= 1
 c_7: x19 + x52 + x81 >= 1
 c_8: x21 + x46 + x95 >= 1
 c_9: x20 + x55 + x93 >= 1
 c_10: x4 + x46 + x80 >= 1
 c_11: x22 + x45 + x95 >= 1
 c_12: x10 + x42 + x74 >= 1
 c_13: x22 + x35 + x96 >= 1
 c_14: x20 + x54 + x94 >= 1
 c_15: x23 + x36 + x96 >= 1
 c_16: x10 + x43 + x75 >= 1
 c_17: x29 + x67 + x102 >= 1
 c_18: x21 + x54 + x94 >= 1
 c_19: x4 + x61 + x79 >= 1
 c_20: x27 + x65 + x100 >= 1
 c_21: x17 + x59 + x86 >= 1
 c_22: x26 + x64 + x99 >= 1
 c_23: x5 + x45 + x80 >= 1
 c_24: x19 + x55 + x92 >= 1
 c_25: x26 + x64 + x100 >= 1
 c_26: x4 + x46 + x80 >= 1
 c_27: x26 + x64 + x99 >= 1
 c_28: x10 + x43 + x74 >= 1
 c_29: x30 + x51 + x85 >= 1
 c_30: x30 + x68 + x103 >= 1
 c_31: x31 + x48 + x82 >= 1
 c_32: x16 + x50 + x103 >= 1
 c_33: x19 + x55 + x92 >= 1
 c_34: x32 + x59 + x92 >= 1
 c_35: x32 + x59 + x92 >= 1
 c_36: x7 + x40 + x71 >= 1
 c_37: x4 + x46 + x80 >= 1
 c_38: x7 + x40 + x72 >= 1
 c_39: x9 + x42 + x73 >= 1
 c_40: x9 + x42 + x74 >= 1
 c_41: x9 + x42 + x73 >= 1
 c_42: x27 + x65 + x101 >= 1
 c_43: x14 + x51 + x84 >= 1
 c_44: x23 + x36 + x97 >= 1
 c_45: x28 + x66 + x101 >= 1
 c_46: x8 + x40 + x72 >= 1
 c_47: x28 + x66 + x102 >= 1
 c_48: x22 + x45 + x95 >= 1
 c_49: x11 + x56 + x89 >= 1
 c_50: x29 + x67 + x103 >= 1
 c_51: x25 + x63 + x98 >= 1
 c_52: x12 + x53 + x88 >= 1
 c_53: x20 + x54 + x93 >= 1
 c_54: x27 + x65 + x100 >= 1
 c_55: x6 + x58 + x91 >= 1
 c_56: x1 + x38 + x77 >= 1
 c_57: x10 + x43 + x74 >= 1
 c_58: x10 + x43 + x74 >= 1
 c_59: x26 + x64 + x99 >= 1
 c_60: x33 + x59 + x92 >= 1
 c_61: x29 + x67 + x102 >= 1
 c_62: x12 + x56 + x89 >= 1
 c_63: x31 + x48 + x82 >= 1
 c_64: x15 + x49 + x83 >= 1
 c_65: x24 + x62 + x98 >= 1
 c_66: x19 + x55 + x93 >= 1
 c_67: x22 + x45 + x95 >= 1
 c_68: x33 + x59 + x92 >= 1
 c_69: x4 + x46 + x80 >= 1
 c_70: x8 + x41 + x72 >= 1
 c_71: x28 + x66 + x101 >= 1
 c_72: x21 + x54 + x94 >= 1
 c_73: x1 + x38 + x77 >= 1
 c_74: x2 + x48 + x82 >= 1
 c_75: x3 + x62 + x78 >= 1
 c_76: x23 + x37 + x97 >= 1
 c_77: x27 + x65 + x100 >= 1
 c_78: x13 + x53 + x88 >= 1
 c_79: x13 + x53 + x88 >= 1
 c_80: x13 + x52 + x87 >= 1
 c_81: x32 + x58 + x91 >= 1
 c_82: x9 + x41 + x73 >= 1
 c_83: x9 + x42 + x73 >= 1
 c_84: x8 + x41 + x72 >= 1
 c_85: x15 + x49 + x83 >= 1
 c_86: x16 + x50 + x84 >= 1
 c_87: x11 + x56 + x89 >= 1
 c_88: x26 + x64 + x99 >= 1
 c_89: x26 + x64 + x99 >= 1
 c_90: x18 + x61 + x86 >= 1
 c_91: x25 + x63 + x98 >= 1
 c_92: x11 + x56 + x89 >= 1
 c_93: x19 + x55 + x93 >= 1
 c_94: x20 + x54 + x93 >= 1
 c_95: x27 + x65 + x100 >= 1
 c_96: x18 + x60 + x86 >= 1
 c_97: x18 + x47 + x81 >= 1
 c_98: x20 + x54 + x94 >= 1
 c_99: x14 + x47 + x84 >= 1
 c_100: x23 + x36 + x96 >= 1
 c_101: x16 + x50 + x83 >= 1
 c_102: x0 + x35 + x69 >= 1
 c_103: x23 + x36 + x96 >= 1
 c_104: x14 + x51 + x84 >= 1
 c_105: x12 + x56 + x89 >= 1
 c_106: x27 + x65 + x100 >= 1
 c_107: x21 + x44 + x94 >= 1
 c_108: x12 + x53 + x88 >= 1
 c_109: x30 + x68 + x103 >= 1
 c_110: x13 + x52 + x87 >= 1
 c_111: x18 + x60 + x86 >= 1
 c_112: x12 + x53 + x88 >= 1
 c_113: x29 + x67 + x102 >= 1
 c_114: x7 + x57 + x90 >= 1
 c_115: x8 + x41 + x72 >= 1
 c_116: x6 + x40 + x71 >= 1
 c_117: x15 + x49 + x83 >= 1
 c_118: x7 + x57 + x90 >= 1
 c_119: x28 + x66 + x101 >= 1
 c_120: x13 + x52 + x87 >= 1
 c_121: x28 + x66 + x101 >= 1
 c_122: x2 + x38 + x77 >= 1
 c_123: x18 + x61 + x86 >= 1
 c_124: x23 + x36 + x96 >= 1
 c_125: x2 + x39 + x75 >= 1
 c_126: x5 + x44 + x75 >= 1
 c_127: x3 + x62 + x78 >= 1
 c_128: x14 + x61 + x87 >= 1
 c_129: x19 + x52 + x81 >= 1
 c_130: x6 + x35 + x71 >= 1
 c_131: x31 + x48 + x82 >= 1
 c_132: x25 + x63 + x98 >= 1
 c_133: x15 + x49 + x83 >= 1
 c_134: x0 + x35 + x69 >= 1
 c_135: x14 + x47 + x84 >= 1
 c_136: x6 + x57 + x90 >= 1
 c_137: x0 + x35 + x69 >= 1
 c_138: x17 + x60 + x86 >= 1
 c_139: x22 + x45 + x95 >= 1
 c_140: x5 + x45 + x80 >= 1
 c_141: x29 + x67 + x102 >= 1
 c_142: x6 + x40 + x71 >= 1
 c_143: x0 + x37 + x69 >= 1
 c_144: x24 + x37 + x97 >= 1
 c_145: x24 + x34 + x97 >= 1
 c_146: x29 + x67 + x102 >= 1
 c_147: x25 + x63 + x99 >= 1
 c_148: x20 + x55 + x93 >= 1
 c_149: x2 + x48 + x81 >= 1
 c_150: x3 + x34 + x78 >= 1
 c_151: x30 + x68 + x103 >= 1
 c_152: x30 + x68 + x103 >= 1
 c_153: x16 + x51 + x76 >= 1
 c_154: x24 + x37 + x97 >= 1
 c_155: x30 + x51 + x85 >= 1
 c_156: x33 + x58 + x91 >= 1
 c_157: x33 + x58 + x91 >= 1
 c_158: x11 + x56 + x89 >= 1
 c_159: x0 + x34 + x77 >= 1
 c_160: x31 + x48 + x82 >= 1
 c_161: x18 + x47 + x81 >= 1
 c_162: x28 + x66 + x101 >= 1
 c_163: x21 + x44 + x94 >= 1
 c_164: x21 + x46 + x95 >= 1
 c_165: x1 + x39 + x70 >= 1
 c_166: x12 + x53 + x88 >= 1
 c_167: x3 + x62 + x78 >= 1
 c_168: x14 + x61 + x87 >= 1
 c_169: x3 + x62 + x78 >= 1
 c_170: x13 + x52 + x87 >= 1
 c_171: x32 + x58 + x91 >= 1
 c_172: x15 + x49 + x84 >= 1
 c_173: x2 + x68 + x77 >= 1
 c_174: x2 + x38 + x69 >= 1
 c_175: x6 + x44 + x75 >= 1
 c_176: x4 + x61 + x79 >= 1
Bounds
 x0 <= 1
 x1 <= 1
 x2 <= 1
 x3 <= 1
 x4 <= 1
 x5 <= 1
 x6 <= 1
 x7 <= 1
 x8 <= 1
 x9 <= 1
 x10 <= 1
 x11 <= 1
 x12 <= 1
 x13 <= 1
 x14 <= 1
 x15 <= 1
 x16 <= 1
 x17 <= 1
 x18 <= 1
 x19 <= 1
 x20 <= 1
 x21 <= 1
 x22 <= 1
 x23 <= 1
 x24 <= 1
 x25 <= 1
 x26 <= 1
 x27 <= 1
 x28 <= 1
 x29 <= 1
 x30 <= 1
 x31 <= 1
 x32 <= 1
 x33 <= 1
 x34 <= 1
 x35 <= 1
 x36 <= 1
 x37 <= 1
 x38 <= 1
 x39 <= 1
 x40 <= 1
 x41 <= 1
 x42 <= 1
 x43 <= 1
 x44 <= 1
 x45 <= 1
 x46 <= 1
 x47 <= 1
 x48 <= 1
 x49 <= 1
 x50 <= 1
 x51 <= 1
 x52 <= 1
 x53 <= 1
 x54 <= 1
 x55 <= 1
 x56 <= 1
 x57 <= 1
 x58 <= 1
 x59 <= 1
 x60 <= 1
 x61 <= 1
 x62 <= 1
 x63 <= 1
 x64 <= 1
 x65 <= 1
 x66 <= 1
 x67 <= 1
 x68 <= 1
 x69 <= 1
 x70 <= 1
 x71 <= 1
 x72 <= 1
 x73 <= 1
 x74 <= 1
 x75 <= 1
 x76 <= 1
 x77 <= 1
 x78 <= 1
 x79 <= 1
 x80 <= 1
 x81 <= 1
 x82 <= 1
 x83 <= 1
 x84 <= 1
 x85 <= 1
 x86 <= 1
 x87 <= 1
 x88 <= 1
 x89 <= 1
 x90 <= 1
 x91 <= 1
 x92 <= 1
 x93 <= 1
 x94 <= 1
 x95 <= 1
 x96 <= 1
 x97 <= 1
 x98 <= 1
 x99 <= 1
 x100 <= 1
 x101 <= 1
 x102 <= 1
 x103 <= 1
Generals
 x0 x1 x2 x3 x4 x5 x6 x7 x8 x9 x10 x11 x12 x13 x14 x15 x16 x17 x18 x19 x20
 x21 x22 x23 x24 x25 x26 x27 x28 x29 x30 x31 x32 x33 x34 x35 x36 x37 x38
 x39 x40 x41 x42 x43 x44 x45 x46 x47 x48 x49 x50 x51 x52 x53 x54 x55 x56
 x57 x58 x59 x60 x61 x62 x63 x64 x65 x66 x67 x68 x69 x70 x71 x72 x73 x74
 x75 x76 x77 x78 x79 x80 x81 x82 x83 x84 x85 x86 x87 x88 x89 x90 x91 x92
 x93 x94 x95 x96 x97 x98 x99 x100 x101 x102 x103
End
